p cnf 1168 2309
-1 -33 0 
-1 -217 0 
1 2 33 0 
1 2 217 0 
-2 -33 0 
-2 -217 0 
-3 -34 0 
-3 -218 0 
3 -33 34 0 
3 -217 218 0 
-4 -35 0 
-4 -219 0 
4 -34 35 0 
4 -218 219 0 
-5 -36 0 
-5 -220 0 
5 -35 36 0 
5 -219 220 0 
-6 -37 0 
-6 -221 0 
6 -36 37 0 
6 -220 221 0 
-7 -38 0 
-7 -222 0 
7 -37 38 0 
7 -221 222 0 
-8 -39 0 
-8 -223 0 
8 -38 39 0 
8 -222 223 0 
-9 -40 0 
-9 -224 0 
9 -39 40 0 
9 -223 224 0 
-10 -41 0 
-10 -225 0 
10 -40 41 0 
10 -224 225 0 
-11 -42 0 
-11 -226 0 
11 -41 42 0 
11 -225 226 0 
-12 -43 0 
-12 -227 0 
12 -42 43 0 
12 -226 227 0 
-13 -44 0 
-13 -228 0 
13 -43 44 0 
13 -227 228 0 
-14 -45 0 
-14 -229 0 
14 -44 45 0 
14 -228 229 0 
-15 -46 0 
-15 -230 0 
15 -45 46 0 
15 -229 230 0 
-16 -47 0 
-16 -231 0 
16 -46 47 0 
16 -230 231 0 
-17 -48 0 
-17 -232 0 
17 -47 48 0 
17 -231 232 0 
-18 -49 0 
-18 -233 0 
18 -48 49 0 
18 -232 233 0 
-19 -50 0 
-19 -234 0 
19 -49 50 0 
19 -233 234 0 
-20 -51 0 
-20 -235 0 
20 -50 51 0 
20 -234 235 0 
-21 -52 0 
-21 -236 0 
21 -51 52 0 
21 -235 236 0 
-22 -53 0 
-22 -237 0 
22 -52 53 0 
22 -236 237 0 
-23 -54 0 
-23 -238 0 
23 -53 54 0 
23 -237 238 0 
-24 -55 0 
-24 -239 0 
24 -54 55 0 
24 -238 239 0 
-25 -56 0 
-25 -240 0 
25 -55 56 0 
25 -239 240 0 
-26 -241 0 
-26 -56 57 0 
26 -57 0 
26 -240 241 0 
-27 -58 0 
-27 -242 0 
27 -57 58 0 
27 -241 242 0 
-28 -243 0 
-28 -58 59 0 
28 -59 0 
28 -242 243 0 
-29 -244 0 
-29 -59 60 0 
29 -60 0 
29 -243 244 0 
-30 -245 0 
-30 -60 61 0 
30 -61 0 
30 -244 245 0 
-31 -62 0 
-31 -246 0 
31 -61 62 0 
31 -245 246 0 
32 -62 0 
32 -246 0 
33 -34 0 
34 -35 0 
35 -36 0 
36 -37 0 
37 -38 0 
38 -39 0 
39 -40 0 
40 -41 0 
41 -42 0 
42 -43 0 
43 -44 0 
44 -45 0 
45 -46 0 
46 -47 0 
47 -48 0 
48 -49 0 
49 -50 0 
50 -51 0 
51 -52 0 
52 -53 0 
53 -54 0 
54 -55 0 
55 -56 0 
56 -57 0 
57 -58 0 
58 -59 0 
59 -60 0 
60 -61 0 
61 -62 0 
-63 -95 0 
-63 -339 0 
63 64 95 0 
63 64 339 0 
-64 -95 0 
-64 -339 0 
-65 -96 0 
-65 -340 0 
65 -95 96 0 
65 -339 340 0 
-66 -97 0 
-66 -341 0 
66 -96 97 0 
66 -340 341 0 
-67 -98 0 
-67 -342 0 
67 -97 98 0 
67 -341 342 0 
-68 -99 0 
-68 -343 0 
68 -98 99 0 
68 -342 343 0 
-69 -100 0 
-69 -344 0 
69 -99 100 0 
69 -343 344 0 
-70 -101 0 
-70 -345 0 
70 -100 101 0 
70 -344 345 0 
-71 -102 0 
-71 -346 0 
71 -101 102 0 
71 -345 346 0 
-72 -103 0 
-72 -347 0 
72 -102 103 0 
72 -346 347 0 
-73 -104 0 
-73 -348 0 
73 -103 104 0 
73 -347 348 0 
-74 -105 0 
-74 -349 0 
74 -104 105 0 
74 -348 349 0 
-75 -106 0 
-75 -350 0 
75 -105 106 0 
75 -349 350 0 
-76 -107 0 
-76 -351 0 
76 -106 107 0 
76 -350 351 0 
-77 -108 0 
-77 -352 0 
77 -107 108 0 
77 -351 352 0 
-78 -109 0 
-78 -353 0 
78 -108 109 0 
78 -352 353 0 
-79 -110 0 
-79 -354 0 
79 -109 110 0 
79 -353 354 0 
-80 -111 0 
-80 -355 0 
80 -110 111 0 
80 -354 355 0 
-81 -112 0 
-81 -356 0 
81 -111 112 0 
81 -355 356 0 
-82 -113 0 
-82 -357 0 
82 -112 113 0 
82 -356 357 0 
-83 -114 0 
-83 -358 0 
83 -113 114 0 
83 -357 358 0 
-84 -115 0 
-84 -359 0 
84 -114 115 0 
84 -358 359 0 
-85 -116 0 
-85 -360 0 
85 -115 116 0 
85 -359 360 0 
-86 -117 0 
-86 -361 0 
86 -116 117 0 
86 -360 361 0 
-87 -118 0 
-87 -362 0 
87 -117 118 0 
87 -361 362 0 
-88 -363 0 
-88 -118 119 0 
88 -119 0 
88 -362 363 0 
-89 -120 0 
-89 -364 0 
89 -119 120 0 
89 -363 364 0 
-90 -365 0 
-90 -120 121 0 
90 -121 0 
90 -364 365 0 
-91 -366 0 
-91 -121 122 0 
91 -122 0 
91 -365 366 0 
-92 -367 0 
-92 -122 123 0 
92 -123 0 
92 -366 367 0 
-93 -124 0 
-93 -368 0 
93 -123 124 0 
93 -367 368 0 
94 -124 0 
94 -368 0 
95 -96 0 
96 -97 0 
97 -98 0 
98 -99 0 
99 -100 0 
100 -101 0 
101 -102 0 
102 -103 0 
103 -104 0 
104 -105 0 
105 -106 0 
106 -107 0 
107 -108 0 
108 -109 0 
109 -110 0 
110 -111 0 
111 -112 0 
112 -113 0 
113 -114 0 
114 -115 0 
115 -116 0 
116 -117 0 
117 -118 0 
118 -119 0 
119 -120 0 
120 -121 0 
121 -122 0 
122 -123 0 
123 -124 0 
-125 -157 0 
-125 -187 0 
125 126 157 0 
125 126 187 0 
-126 -157 0 
-126 -187 0 
-127 -158 0 
-127 -188 0 
127 -157 158 0 
127 -187 188 0 
-128 -159 0 
-128 -189 0 
128 -158 159 0 
128 -188 189 0 
-129 -160 0 
-129 -190 0 
129 -159 160 0 
129 -189 190 0 
-130 -161 0 
-130 -191 0 
130 -160 161 0 
130 -190 191 0 
-131 -162 0 
-131 -192 0 
131 -161 162 0 
131 -191 192 0 
-132 -163 0 
-132 -193 0 
132 -162 163 0 
132 -192 193 0 
-133 -164 0 
-133 -194 0 
133 -163 164 0 
133 -193 194 0 
-134 -165 0 
-134 -195 0 
134 -164 165 0 
134 -194 195 0 
-135 -166 0 
-135 -196 0 
135 -165 166 0 
135 -195 196 0 
-136 -167 0 
-136 -197 0 
136 -166 167 0 
136 -196 197 0 
-137 -168 0 
-137 -198 0 
137 -167 168 0 
137 -197 198 0 
-138 -169 0 
-138 -199 0 
138 -168 169 0 
138 -198 199 0 
-139 -170 0 
-139 -200 0 
139 -169 170 0 
139 -199 200 0 
-140 -171 0 
-140 -201 0 
140 -170 171 0 
140 -200 201 0 
-141 -172 0 
-141 -202 0 
141 -171 172 0 
141 -201 202 0 
-142 -173 0 
-142 -203 0 
142 -172 173 0 
142 -202 203 0 
-143 -174 0 
-143 -204 0 
143 -173 174 0 
143 -203 204 0 
-144 -175 0 
-144 -205 0 
144 -174 175 0 
144 -204 205 0 
-145 -176 0 
-145 -206 0 
145 -175 176 0 
145 -205 206 0 
-146 -177 0 
-146 -207 0 
146 -176 177 0 
146 -206 207 0 
-147 -178 0 
-147 -208 0 
147 -177 178 0 
147 -207 208 0 
-148 -179 0 
-148 -209 0 
148 -178 179 0 
148 -208 209 0 
-149 -180 0 
-149 -210 0 
149 -179 180 0 
149 -209 210 0 
-150 -181 0 
-150 -210 211 0 
150 -211 0 
150 -180 181 0 
-151 -182 0 
-151 -212 0 
151 -181 182 0 
151 -211 212 0 
-152 -183 0 
-152 -212 213 0 
152 -213 0 
152 -182 183 0 
-153 -184 0 
-153 -213 214 0 
153 -214 0 
153 -183 184 0 
-154 -185 0 
-154 -214 215 0 
154 -215 0 
154 -184 185 0 
-155 -186 0 
-155 -216 0 
155 -185 186 0 
155 -215 216 0 
156 -186 0 
156 -216 0 
157 -158 0 
158 -159 0 
159 -160 0 
160 -161 0 
161 -162 0 
162 -163 0 
163 -164 0 
164 -165 0 
165 -166 0 
166 -167 0 
167 -168 0 
168 -169 0 
169 -170 0 
170 -171 0 
171 -172 0 
172 -173 0 
173 -174 0 
174 -175 0 
175 -176 0 
176 -177 0 
177 -178 0 
178 -179 0 
179 -180 0 
180 -181 0 
181 -182 0 
182 -183 0 
183 -184 0 
184 -185 0 
185 -186 0 
187 -188 0 
188 -189 0 
189 -190 0 
190 -191 0 
191 -192 0 
192 -193 0 
193 -194 0 
194 -195 0 
195 -196 0 
196 -197 0 
197 -198 0 
198 -199 0 
199 -200 0 
200 -201 0 
201 -202 0 
202 -203 0 
203 -204 0 
204 -205 0 
205 -206 0 
206 -207 0 
207 -208 0 
208 -209 0 
209 -210 0 
210 -211 0 
211 -212 0 
212 -213 0 
213 -214 0 
214 -215 0 
215 -216 0 
217 -218 0 
218 -219 0 
219 -220 0 
220 -221 0 
221 -222 0 
222 -223 0 
223 -224 0 
224 -225 0 
225 -226 0 
226 -227 0 
227 -228 0 
228 -229 0 
229 -230 0 
230 -231 0 
231 -232 0 
232 -233 0 
233 -234 0 
234 -235 0 
235 -236 0 
236 -237 0 
237 -238 0 
238 -239 0 
239 -240 0 
240 -241 0 
241 -242 0 
242 -243 0 
243 -244 0 
244 -245 0 
245 -246 0 
-247 -279 0 
-247 -309 0 
247 248 279 0 
247 248 309 0 
-248 -279 0 
-248 -309 0 
-249 -280 0 
-249 -310 0 
249 -279 280 0 
249 -309 310 0 
-250 -281 0 
-250 -311 0 
250 -280 281 0 
250 -310 311 0 
-251 -282 0 
-251 -312 0 
251 -281 282 0 
251 -311 312 0 
-252 -283 0 
-252 -313 0 
252 -282 283 0 
252 -312 313 0 
-253 -284 0 
-253 -314 0 
253 -283 284 0 
253 -313 314 0 
-254 -285 0 
-254 -315 0 
254 -284 285 0 
254 -314 315 0 
-255 -286 0 
-255 -316 0 
255 -285 286 0 
255 -315 316 0 
-256 -287 0 
-256 -317 0 
256 -286 287 0 
256 -316 317 0 
-257 -288 0 
-257 -318 0 
257 -287 288 0 
257 -317 318 0 
-258 -289 0 
-258 -319 0 
258 -288 289 0 
258 -318 319 0 
-259 -290 0 
-259 -320 0 
259 -289 290 0 
259 -319 320 0 
-260 -291 0 
-260 -321 0 
260 -290 291 0 
260 -320 321 0 
-261 -292 0 
-261 -322 0 
261 -291 292 0 
261 -321 322 0 
-262 -293 0 
-262 -323 0 
262 -292 293 0 
262 -322 323 0 
-263 -294 0 
-263 -324 0 
263 -293 294 0 
263 -323 324 0 
-264 -295 0 
-264 -325 0 
264 -294 295 0 
264 -324 325 0 
-265 -296 0 
-265 -326 0 
265 -295 296 0 
265 -325 326 0 
-266 -297 0 
-266 -327 0 
266 -296 297 0 
266 -326 327 0 
-267 -298 0 
-267 -328 0 
267 -297 298 0 
267 -327 328 0 
-268 -299 0 
-268 -329 0 
268 -298 299 0 
268 -328 329 0 
-269 -300 0 
-269 -330 0 
269 -299 300 0 
269 -329 330 0 
-270 -301 0 
-270 -331 0 
270 -300 301 0 
270 -330 331 0 
-271 -302 0 
-271 -332 0 
271 -301 302 0 
271 -331 332 0 
-272 -303 0 
-272 -332 333 0 
272 -333 0 
272 -302 303 0 
-273 -304 0 
-273 -334 0 
273 -303 304 0 
273 -333 334 0 
-274 -305 0 
-274 -334 335 0 
274 -335 0 
274 -304 305 0 
-275 -306 0 
-275 -335 336 0 
275 -336 0 
275 -305 306 0 
-276 -307 0 
-276 -336 337 0 
276 -337 0 
276 -306 307 0 
-277 -308 0 
-277 -338 0 
277 -307 308 0 
277 -337 338 0 
278 -308 0 
278 -338 0 
279 -280 0 
280 -281 0 
281 -282 0 
282 -283 0 
283 -284 0 
284 -285 0 
285 -286 0 
286 -287 0 
287 -288 0 
288 -289 0 
289 -290 0 
290 -291 0 
291 -292 0 
292 -293 0 
293 -294 0 
294 -295 0 
295 -296 0 
296 -297 0 
297 -298 0 
298 -299 0 
299 -300 0 
300 -301 0 
301 -302 0 
302 -303 0 
303 -304 0 
304 -305 0 
305 -306 0 
306 -307 0 
307 -308 0 
309 -310 0 
310 -311 0 
311 -312 0 
312 -313 0 
313 -314 0 
314 -315 0 
315 -316 0 
316 -317 0 
317 -318 0 
318 -319 0 
319 -320 0 
320 -321 0 
321 -322 0 
322 -323 0 
323 -324 0 
324 -325 0 
325 -326 0 
326 -327 0 
327 -328 0 
328 -329 0 
329 -330 0 
330 -331 0 
331 -332 0 
332 -333 0 
333 -334 0 
334 -335 0 
335 -336 0 
336 -337 0 
337 -338 0 
339 -340 0 
340 -341 0 
341 -342 0 
342 -343 0 
343 -344 0 
344 -345 0 
345 -346 0 
346 -347 0 
347 -348 0 
348 -349 0 
349 -350 0 
350 -351 0 
351 -352 0 
352 -353 0 
353 -354 0 
354 -355 0 
355 -356 0 
356 -357 0 
357 -358 0 
358 -359 0 
359 -360 0 
360 -361 0 
361 -362 0 
362 -363 0 
363 -364 0 
364 -365 0 
365 -366 0 
366 -367 0 
367 -368 0 
-369 -401 0 
-369 -431 0 
369 370 401 0 
369 370 431 0 
-370 -401 0 
-370 -431 0 
-371 -402 0 
-371 -432 0 
371 -401 402 0 
371 -431 432 0 
-372 -403 0 
-372 -433 0 
372 -402 403 0 
372 -432 433 0 
-373 -404 0 
-373 -434 0 
373 -403 404 0 
373 -433 434 0 
-374 -405 0 
-374 -435 0 
374 -404 405 0 
374 -434 435 0 
-375 -406 0 
-375 -436 0 
375 -405 406 0 
375 -435 436 0 
-376 -407 0 
-376 -437 0 
376 -406 407 0 
376 -436 437 0 
-377 -408 0 
-377 -438 0 
377 -407 408 0 
377 -437 438 0 
-378 -409 0 
-378 -439 0 
378 -408 409 0 
378 -438 439 0 
-379 -410 0 
-379 -440 0 
379 -409 410 0 
379 -439 440 0 
-380 -411 0 
-380 -441 0 
380 -410 411 0 
380 -440 441 0 
-381 -412 0 
-381 -442 0 
381 -411 412 0 
381 -441 442 0 
-382 -413 0 
-382 -443 0 
382 -412 413 0 
382 -442 443 0 
-383 -414 0 
-383 -444 0 
383 -413 414 0 
383 -443 444 0 
-384 -415 0 
-384 -445 0 
384 -414 415 0 
384 -444 445 0 
-385 -416 0 
-385 -446 0 
385 -415 416 0 
385 -445 446 0 
-386 -417 0 
-386 -447 0 
386 -416 417 0 
386 -446 447 0 
-387 -418 0 
-387 -448 0 
387 -417 418 0 
387 -447 448 0 
-388 -419 0 
-388 -449 0 
388 -418 419 0 
388 -448 449 0 
-389 -420 0 
-389 -450 0 
389 -419 420 0 
389 -449 450 0 
-390 -421 0 
-390 -451 0 
390 -420 421 0 
390 -450 451 0 
-391 -422 0 
-391 -452 0 
391 -421 422 0 
391 -451 452 0 
-392 -423 0 
-392 -453 0 
392 -422 423 0 
392 -452 453 0 
-393 -424 0 
-393 -454 0 
393 -423 424 0 
393 -453 454 0 
-394 -455 0 
-394 -424 425 0 
394 -425 0 
394 -454 455 0 
-395 -426 0 
-395 -456 0 
395 -425 426 0 
395 -455 456 0 
-396 -457 0 
-396 -426 427 0 
396 -427 0 
396 -456 457 0 
-397 -458 0 
-397 -427 428 0 
397 -428 0 
397 -457 458 0 
-398 -459 0 
-398 -428 429 0 
398 -429 0 
398 -458 459 0 
-399 -430 0 
-399 -460 0 
399 -429 430 0 
399 -459 460 0 
400 -430 0 
400 -460 0 
401 -402 0 
402 -403 0 
403 -404 0 
404 -405 0 
405 -406 0 
406 -407 0 
407 -408 0 
408 -409 0 
409 -410 0 
410 -411 0 
411 -412 0 
412 -413 0 
413 -414 0 
414 -415 0 
415 -416 0 
416 -417 0 
417 -418 0 
418 -419 0 
419 -420 0 
420 -421 0 
421 -422 0 
422 -423 0 
423 -424 0 
424 -425 0 
425 -426 0 
426 -427 0 
427 -428 0 
428 -429 0 
429 -430 0 
431 -432 0 
432 -433 0 
433 -434 0 
434 -435 0 
435 -436 0 
436 -437 0 
437 -438 0 
438 -439 0 
439 -440 0 
440 -441 0 
441 -442 0 
442 -443 0 
443 -444 0 
444 -445 0 
445 -446 0 
446 -447 0 
447 -448 0 
448 -449 0 
449 -450 0 
450 -451 0 
451 -452 0 
452 -453 0 
453 -454 0 
454 -455 0 
455 -456 0 
456 -457 0 
457 -458 0 
458 -459 0 
459 -460 0 
-461 -493 0 
-461 -523 0 
461 462 493 0 
461 462 523 0 
-462 -493 0 
-462 -523 0 
-463 -494 0 
-463 -524 0 
463 -493 494 0 
463 -523 524 0 
-464 -495 0 
-464 -525 0 
464 -494 495 0 
464 -524 525 0 
-465 -496 0 
-465 -526 0 
465 -495 496 0 
465 -525 526 0 
-466 -497 0 
-466 -527 0 
466 -496 497 0 
466 -526 527 0 
-467 -498 0 
-467 -528 0 
467 -497 498 0 
467 -527 528 0 
-468 -499 0 
-468 -529 0 
468 -498 499 0 
468 -528 529 0 
-469 -500 0 
-469 -530 0 
469 -499 500 0 
469 -529 530 0 
-470 -501 0 
-470 -531 0 
470 -500 501 0 
470 -530 531 0 
-471 -502 0 
-471 -532 0 
471 -501 502 0 
471 -531 532 0 
-472 -503 0 
-472 -533 0 
472 -502 503 0 
472 -532 533 0 
-473 -504 0 
-473 -534 0 
473 -503 504 0 
473 -533 534 0 
-474 -505 0 
-474 -535 0 
474 -504 505 0 
474 -534 535 0 
-475 -506 0 
-475 -536 0 
475 -505 506 0 
475 -535 536 0 
-476 -507 0 
-476 -537 0 
476 -506 507 0 
476 -536 537 0 
-477 -508 0 
-477 -538 0 
477 -507 508 0 
477 -537 538 0 
-478 -509 0 
-478 -539 0 
478 -508 509 0 
478 -538 539 0 
-479 -510 0 
-479 -540 0 
479 -509 510 0 
479 -539 540 0 
-480 -511 0 
-480 -541 0 
480 -510 511 0 
480 -540 541 0 
-481 -512 0 
-481 -542 0 
481 -511 512 0 
481 -541 542 0 
-482 -513 0 
-482 -543 0 
482 -512 513 0 
482 -542 543 0 
-483 -514 0 
-483 -544 0 
483 -513 514 0 
483 -543 544 0 
-484 -515 0 
-484 -545 0 
484 -514 515 0 
484 -544 545 0 
-485 -516 0 
-485 -546 0 
485 -515 516 0 
485 -545 546 0 
-486 -547 0 
-486 -516 517 0 
486 -517 0 
486 -546 547 0 
-487 -518 0 
-487 -548 0 
487 -517 518 0 
487 -547 548 0 
-488 -549 0 
-488 -518 519 0 
488 -519 0 
488 -548 549 0 
-489 -550 0 
-489 -519 520 0 
489 -520 0 
489 -549 550 0 
-490 -551 0 
-490 -520 521 0 
490 -521 0 
490 -550 551 0 
-491 -522 0 
-491 -552 0 
491 -521 522 0 
491 -551 552 0 
492 -522 0 
492 -552 0 
493 -494 0 
494 -495 0 
495 -496 0 
496 -497 0 
497 -498 0 
498 -499 0 
499 -500 0 
500 -501 0 
501 -502 0 
502 -503 0 
503 -504 0 
504 -505 0 
505 -506 0 
506 -507 0 
507 -508 0 
508 -509 0 
509 -510 0 
510 -511 0 
511 -512 0 
512 -513 0 
513 -514 0 
514 -515 0 
515 -516 0 
516 -517 0 
517 -518 0 
518 -519 0 
519 -520 0 
520 -521 0 
521 -522 0 
523 -524 0 
524 -525 0 
525 -526 0 
526 -527 0 
527 -528 0 
528 -529 0 
529 -530 0 
530 -531 0 
531 -532 0 
532 -533 0 
533 -534 0 
534 -535 0 
535 -536 0 
536 -537 0 
537 -538 0 
538 -539 0 
539 -540 0 
540 -541 0 
541 -542 0 
542 -543 0 
543 -544 0 
544 -545 0 
545 -546 0 
546 -547 0 
547 -548 0 
548 -549 0 
549 -550 0 
550 -551 0 
551 -552 0 
-553 -585 0 
-553 -615 0 
553 554 585 0 
553 554 615 0 
-554 -585 0 
-554 -615 0 
-555 -586 0 
-555 -616 0 
555 -585 586 0 
555 -615 616 0 
-556 -587 0 
-556 -617 0 
556 -586 587 0 
556 -616 617 0 
-557 -588 0 
-557 -618 0 
557 -587 588 0 
557 -617 618 0 
-558 -589 0 
-558 -619 0 
558 -588 589 0 
558 -618 619 0 
-559 -590 0 
-559 -620 0 
559 -589 590 0 
559 -619 620 0 
-560 -591 0 
-560 -621 0 
560 -590 591 0 
560 -620 621 0 
-561 -592 0 
-561 -622 0 
561 -591 592 0 
561 -621 622 0 
-562 -593 0 
-562 -623 0 
562 -592 593 0 
562 -622 623 0 
-563 -594 0 
-563 -624 0 
563 -593 594 0 
563 -623 624 0 
-564 -595 0 
-564 -625 0 
564 -594 595 0 
564 -624 625 0 
-565 -596 0 
-565 -626 0 
565 -595 596 0 
565 -625 626 0 
-566 -597 0 
-566 -627 0 
566 -596 597 0 
566 -626 627 0 
-567 -598 0 
-567 -628 0 
567 -597 598 0 
567 -627 628 0 
-568 -599 0 
-568 -629 0 
568 -598 599 0 
568 -628 629 0 
-569 -600 0 
-569 -630 0 
569 -599 600 0 
569 -629 630 0 
-570 -601 0 
-570 -631 0 
570 -600 601 0 
570 -630 631 0 
-571 -602 0 
-571 -632 0 
571 -601 602 0 
571 -631 632 0 
-572 -603 0 
-572 -633 0 
572 -602 603 0 
572 -632 633 0 
-573 -604 0 
-573 -634 0 
573 -603 604 0 
573 -633 634 0 
-574 -605 0 
-574 -635 0 
574 -604 605 0 
574 -634 635 0 
-575 -606 0 
-575 -636 0 
575 -605 606 0 
575 -635 636 0 
-576 -607 0 
-576 -637 0 
576 -606 607 0 
576 -636 637 0 
-577 -608 0 
-577 -638 0 
577 -607 608 0 
577 -637 638 0 
-578 -639 0 
-578 -608 609 0 
578 -609 0 
578 -638 639 0 
-579 -610 0 
-579 -640 0 
579 -609 610 0 
579 -639 640 0 
-580 -641 0 
-580 -610 611 0 
580 -611 0 
580 -640 641 0 
-581 -642 0 
-581 -611 612 0 
581 -612 0 
581 -641 642 0 
-582 -643 0 
-582 -612 613 0 
582 -613 0 
582 -642 643 0 
-583 -614 0 
-583 -644 0 
583 -613 614 0 
583 -643 644 0 
584 -614 0 
584 -644 0 
585 -586 0 
586 -587 0 
587 -588 0 
588 -589 0 
589 -590 0 
590 -591 0 
591 -592 0 
592 -593 0 
593 -594 0 
594 -595 0 
595 -596 0 
596 -597 0 
597 -598 0 
598 -599 0 
599 -600 0 
600 -601 0 
601 -602 0 
602 -603 0 
603 -604 0 
604 -605 0 
605 -606 0 
606 -607 0 
607 -608 0 
608 -609 0 
609 -610 0 
610 -611 0 
611 -612 0 
612 -613 0 
613 -614 0 
615 -616 0 
616 -617 0 
617 -618 0 
618 -619 0 
619 -620 0 
620 -621 0 
621 -622 0 
622 -623 0 
623 -624 0 
624 -625 0 
625 -626 0 
626 -627 0 
627 -628 0 
628 -629 0 
629 -630 0 
630 -631 0 
631 -632 0 
632 -633 0 
633 -634 0 
634 -635 0 
635 -636 0 
636 -637 0 
637 -638 0 
638 -639 0 
639 -640 0 
640 -641 0 
641 -642 0 
642 -643 0 
643 -644 0 
-645 -707 -706 0 
-645 707 706 0 
645 -707 706 0 
645 707 -706 0 
-646 -706 0 
-646 -708 -705 0 
-646 708 705 0 
646 -705 706 0 
646 -708 705 0 
646 708 -705 0 
-647 -705 0 
-647 -709 -704 0 
-647 709 704 0 
647 -704 705 0 
647 -709 704 0 
647 709 -704 0 
-648 -704 0 
-648 -710 -703 0 
-648 710 703 0 
648 -703 704 0 
648 -710 703 0 
648 710 -703 0 
-649 -703 0 
-649 -711 -702 0 
-649 711 702 0 
649 -702 703 0 
649 -711 702 0 
649 711 -702 0 
-650 -702 0 
-650 -712 -701 0 
-650 712 701 0 
650 -701 702 0 
650 -712 701 0 
650 712 -701 0 
-651 -701 0 
-651 -713 -700 0 
-651 713 700 0 
651 -700 701 0 
651 -713 700 0 
651 713 -700 0 
-652 -700 0 
-652 -714 -699 0 
-652 714 699 0 
652 -699 700 0 
652 -714 699 0 
652 714 -699 0 
-653 -699 0 
-653 -715 -698 0 
-653 715 698 0 
653 -698 699 0 
653 -715 698 0 
653 715 -698 0 
-654 -698 0 
-654 -716 -697 0 
-654 716 697 0 
654 -697 698 0 
654 -716 697 0 
654 716 -697 0 
-655 -697 0 
-655 -717 -696 0 
-655 717 696 0 
655 -696 697 0 
655 -717 696 0 
655 717 -696 0 
-656 -696 0 
-656 -718 -695 0 
-656 718 695 0 
656 -695 696 0 
656 -718 695 0 
656 718 -695 0 
-657 -695 0 
-657 -719 -694 0 
-657 719 694 0 
657 -694 695 0 
657 -719 694 0 
657 719 -694 0 
-658 -694 0 
-658 -720 -693 0 
-658 720 693 0 
658 -693 694 0 
658 -720 693 0 
658 720 -693 0 
-659 -693 0 
-659 -721 -692 0 
-659 721 692 0 
659 -692 693 0 
659 -721 692 0 
659 721 -692 0 
-660 -692 0 
-660 -722 -691 0 
-660 722 691 0 
660 -691 692 0 
660 -722 691 0 
660 722 -691 0 
-661 -691 0 
-661 -723 -690 0 
-661 723 690 0 
661 -690 691 0 
661 -723 690 0 
661 723 -690 0 
-662 -690 0 
-662 -724 -689 0 
-662 724 689 0 
662 -689 690 0 
662 -724 689 0 
662 724 -689 0 
-663 -689 0 
-663 -725 -688 0 
-663 725 688 0 
663 -688 689 0 
663 -725 688 0 
663 725 -688 0 
-664 -688 0 
-664 -726 -687 0 
-664 726 687 0 
664 -687 688 0 
664 -726 687 0 
664 726 -687 0 
-665 -687 0 
-665 -727 -686 0 
-665 727 686 0 
665 -686 687 0 
665 -727 686 0 
665 727 -686 0 
-666 -686 0 
-666 -728 -685 0 
-666 728 685 0 
666 -685 686 0 
666 -728 685 0 
666 728 -685 0 
-667 -685 0 
-667 -729 -684 0 
-667 729 684 0 
667 -684 685 0 
667 -729 684 0 
667 729 -684 0 
-668 -684 0 
-668 -730 -683 0 
-668 730 683 0 
668 -683 684 0 
668 -730 683 0 
668 730 -683 0 
-669 -683 0 
-669 -731 -682 0 
-669 731 682 0 
669 -682 683 0 
669 -731 682 0 
669 731 -682 0 
-670 -682 0 
-670 -732 -681 0 
-670 732 681 0 
670 -681 682 0 
670 -732 681 0 
670 732 -681 0 
-671 -681 0 
-671 -733 -680 0 
-671 733 680 0 
671 -680 681 0 
671 -733 680 0 
671 733 -680 0 
-672 -680 0 
-672 -734 -679 0 
-672 734 679 0 
672 -679 680 0 
672 -734 679 0 
672 734 -679 0 
-673 -679 0 
-673 -735 -678 0 
-673 735 678 0 
673 -678 679 0 
673 -735 678 0 
673 735 -678 0 
-674 -678 0 
-674 -736 677 0 
-674 736 -677 0 
674 677 678 0 
674 -736 -677 0 
674 736 677 0 
-675 -737 0 
-675 -676 677 0 
675 -677 0 
675 676 737 0 
-676 -737 0 
-676 -767 768 0 
676 -677 0 
676 -768 0 
-677 -678 0 
-677 -738 0 
677 737 738 0 
678 -679 0 
679 -680 0 
680 -681 0 
681 -682 0 
682 -683 0 
683 -684 0 
684 -685 0 
685 -686 0 
686 -687 0 
687 -688 0 
688 -689 0 
689 -690 0 
690 -691 0 
691 -692 0 
692 -693 0 
693 -694 0 
694 -695 0 
695 -696 0 
696 -697 0 
697 -698 0 
698 -699 0 
699 -700 0 
700 -701 0 
701 -702 0 
702 -703 0 
703 -704 0 
704 -705 0 
705 -706 0 
707 768 0 
-708 -739 0 
708 709 739 0 
-709 -739 0 
-710 -740 0 
710 -739 740 0 
-711 -741 0 
711 -740 741 0 
-712 -742 0 
712 -741 742 0 
-713 -743 0 
713 -742 743 0 
-714 -744 0 
714 -743 744 0 
-715 -745 0 
715 -744 745 0 
-716 -746 0 
716 -745 746 0 
-717 -747 0 
717 -746 747 0 
-718 -748 0 
718 -747 748 0 
-719 -749 0 
719 -748 749 0 
-720 -750 0 
720 -749 750 0 
-721 -751 0 
721 -750 751 0 
-722 -752 0 
722 -751 752 0 
-723 -753 0 
723 -752 753 0 
-724 -754 0 
724 -753 754 0 
-725 -755 0 
725 -754 755 0 
-726 -756 0 
726 -755 756 0 
-727 -757 0 
727 -756 757 0 
-728 -758 0 
728 -757 758 0 
-729 -759 0 
729 -758 759 0 
-730 -760 0 
730 -759 760 0 
-731 -761 0 
731 -760 761 0 
-732 -762 0 
732 -761 762 0 
-733 -763 0 
733 -762 763 0 
-734 -764 0 
734 -763 764 0 
-735 -765 0 
735 -764 765 0 
-736 -766 0 
736 -765 766 0 
-737 -738 0 
-738 -767 0 
738 -766 767 0 
739 -740 0 
740 -741 0 
741 -742 0 
742 -743 0 
743 -744 0 
744 -745 0 
745 -746 0 
746 -747 0 
747 -748 0 
748 -749 0 
749 -750 0 
750 -751 0 
751 -752 0 
752 -753 0 
753 -754 0 
754 -755 0 
755 -756 0 
756 -757 0 
757 -758 0 
758 -759 0 
759 -760 0 
760 -761 0 
761 -762 0 
762 -763 0 
763 -764 0 
764 -765 0 
765 -766 0 
766 -767 0 
767 -768 0 
-769 -801 0 
769 770 801 0 
-770 -801 0 
-771 -802 0 
771 -801 802 0 
-772 -803 0 
772 -802 803 0 
-773 -804 0 
773 -803 804 0 
-774 -805 0 
774 -804 805 0 
-775 -806 0 
775 -805 806 0 
-776 -807 0 
776 -806 807 0 
-777 -808 0 
777 -807 808 0 
-778 -809 0 
778 -808 809 0 
-779 -810 0 
779 -809 810 0 
-780 -811 0 
780 -810 811 0 
-781 -812 0 
781 -811 812 0 
-782 -813 0 
782 -812 813 0 
-783 -814 0 
783 -813 814 0 
-784 -815 0 
784 -814 815 0 
-785 -816 0 
785 -815 816 0 
-786 -817 0 
786 -816 817 0 
-787 -818 0 
787 -817 818 0 
-788 -819 0 
788 -818 819 0 
-789 -820 0 
789 -819 820 0 
-790 -821 0 
790 -820 821 0 
-791 -822 0 
791 -821 822 0 
-792 -823 0 
792 -822 823 0 
-793 -824 0 
793 -823 824 0 
-794 -825 0 
794 -824 825 0 
-795 -826 0 
795 -825 826 0 
-796 -827 0 
796 -826 827 0 
-797 -828 0 
797 -827 828 0 
-798 -829 0 
798 -828 829 0 
-799 -830 0 
799 -829 830 0 
800 -830 0 
801 -802 0 
802 -803 0 
803 -804 0 
804 -805 0 
805 -806 0 
806 -807 0 
807 -808 0 
808 -809 0 
809 -810 0 
810 -811 0 
811 -812 0 
812 -813 0 
813 -814 0 
814 -815 0 
815 -816 0 
816 -817 0 
817 -818 0 
818 -819 0 
819 -820 0 
820 -821 0 
821 -822 0 
822 -823 0 
823 -824 0 
824 -825 0 
825 -826 0 
826 -827 0 
827 -828 0 
828 -829 0 
829 -830 0 
-831 -863 0 
-831 -893 0 
831 832 863 0 
831 832 893 0 
-832 -863 0 
-832 -893 0 
-833 -864 0 
-833 -894 0 
833 -863 864 0 
833 -893 894 0 
-834 -865 0 
-834 -895 0 
834 -864 865 0 
834 -894 895 0 
-835 -866 0 
-835 -896 0 
835 -865 866 0 
835 -895 896 0 
-836 -867 0 
-836 -897 0 
836 -866 867 0 
836 -896 897 0 
-837 -868 0 
-837 -898 0 
837 -867 868 0 
837 -897 898 0 
-838 -869 0 
-838 -899 0 
838 -868 869 0 
838 -898 899 0 
-839 -870 0 
-839 -900 0 
839 -869 870 0 
839 -899 900 0 
-840 -871 0 
-840 -901 0 
840 -870 871 0 
840 -900 901 0 
-841 -872 0 
-841 -902 0 
841 -871 872 0 
841 -901 902 0 
-842 -873 0 
-842 -903 0 
842 -872 873 0 
842 -902 903 0 
-843 -874 0 
-843 -904 0 
843 -873 874 0 
843 -903 904 0 
-844 -875 0 
-844 -905 0 
844 -874 875 0 
844 -904 905 0 
-845 -876 0 
-845 -906 0 
845 -875 876 0 
845 -905 906 0 
-846 -877 0 
-846 -907 0 
846 -876 877 0 
846 -906 907 0 
-847 -878 0 
-847 -908 0 
847 -877 878 0 
847 -907 908 0 
-848 -879 0 
-848 -909 0 
848 -878 879 0 
848 -908 909 0 
-849 -880 0 
-849 -910 0 
849 -879 880 0 
849 -909 910 0 
-850 -881 0 
-850 -911 0 
850 -880 881 0 
850 -910 911 0 
-851 -882 0 
-851 -912 0 
851 -881 882 0 
851 -911 912 0 
-852 -883 0 
-852 -913 0 
852 -882 883 0 
852 -912 913 0 
-853 -884 0 
-853 -914 0 
853 -883 884 0 
853 -913 914 0 
-854 -885 0 
-854 -915 0 
854 -884 885 0 
854 -914 915 0 
-855 -886 0 
-855 -916 0 
855 -885 886 0 
855 -915 916 0 
-856 -887 0 
-856 -916 917 0 
856 -917 0 
856 -886 887 0 
-857 -888 0 
-857 -918 0 
857 -887 888 0 
857 -917 918 0 
-858 -889 0 
-858 -918 919 0 
858 -919 0 
858 -888 889 0 
-859 -890 0 
-859 -919 920 0 
859 -920 0 
859 -889 890 0 
-860 -891 0 
-860 -920 921 0 
860 -921 0 
860 -890 891 0 
-861 -892 0 
-861 -922 0 
861 -891 892 0 
861 -921 922 0 
862 -892 0 
862 -922 0 
863 -864 0 
864 -865 0 
865 -866 0 
866 -867 0 
867 -868 0 
868 -869 0 
869 -870 0 
870 -871 0 
871 -872 0 
872 -873 0 
873 -874 0 
874 -875 0 
875 -876 0 
876 -877 0 
877 -878 0 
878 -879 0 
879 -880 0 
880 -881 0 
881 -882 0 
882 -883 0 
883 -884 0 
884 -885 0 
885 -886 0 
886 -887 0 
887 -888 0 
888 -889 0 
889 -890 0 
890 -891 0 
891 -892 0 
893 -894 0 
894 -895 0 
895 -896 0 
896 -897 0 
897 -898 0 
898 -899 0 
899 -900 0 
900 -901 0 
901 -902 0 
902 -903 0 
903 -904 0 
904 -905 0 
905 -906 0 
906 -907 0 
907 -908 0 
908 -909 0 
909 -910 0 
910 -911 0 
911 -912 0 
912 -913 0 
913 -914 0 
914 -915 0 
915 -916 0 
916 -917 0 
917 -918 0 
918 -919 0 
919 -920 0 
920 -921 0 
921 -922 0 
-923 -955 0 
923 924 955 0 
-924 -955 0 
-925 -956 0 
925 -955 956 0 
-926 -957 0 
926 -956 957 0 
-927 -958 0 
927 -957 958 0 
-928 -959 0 
928 -958 959 0 
-929 -960 0 
929 -959 960 0 
-930 -961 0 
930 -960 961 0 
-931 -962 0 
931 -961 962 0 
-932 -963 0 
932 -962 963 0 
-933 -964 0 
933 -963 964 0 
-934 -965 0 
934 -964 965 0 
-935 -966 0 
935 -965 966 0 
-936 -967 0 
936 -966 967 0 
-937 -968 0 
937 -967 968 0 
-938 -969 0 
938 -968 969 0 
-939 -970 0 
939 -969 970 0 
-940 -971 0 
940 -970 971 0 
-941 -972 0 
941 -971 972 0 
-942 -973 0 
942 -972 973 0 
-943 -974 0 
943 -973 974 0 
-944 -975 0 
944 -974 975 0 
-945 -976 0 
945 -975 976 0 
-946 -977 0 
946 -976 977 0 
-947 -978 0 
947 -977 978 0 
-948 -979 0 
948 -978 979 0 
-949 -980 0 
949 -979 980 0 
-950 -981 0 
950 -980 981 0 
-951 -982 0 
951 -981 982 0 
-952 -983 0 
952 -982 983 0 
-953 -984 0 
953 -983 984 0 
954 -984 0 
955 -956 0 
956 -957 0 
957 -958 0 
958 -959 0 
959 -960 0 
960 -961 0 
961 -962 0 
962 -963 0 
963 -964 0 
964 -965 0 
965 -966 0 
966 -967 0 
967 -968 0 
968 -969 0 
969 -970 0 
970 -971 0 
971 -972 0 
972 -973 0 
973 -974 0 
974 -975 0 
975 -976 0 
976 -977 0 
977 -978 0 
978 -979 0 
979 -980 0 
980 -981 0 
981 -982 0 
982 -983 0 
983 -984 0 
-985 -1017 0 
-985 -1047 0 
985 986 1017 0 
985 986 1047 0 
-986 -1017 0 
-986 -1047 0 
-987 -1018 0 
-987 -1048 0 
987 -1017 1018 0 
987 -1047 1048 0 
-988 -1019 0 
-988 -1049 0 
988 -1018 1019 0 
988 -1048 1049 0 
-989 -1020 0 
-989 -1050 0 
989 -1019 1020 0 
989 -1049 1050 0 
-990 -1021 0 
-990 -1051 0 
990 -1020 1021 0 
990 -1050 1051 0 
-991 -1022 0 
-991 -1052 0 
991 -1021 1022 0 
991 -1051 1052 0 
-992 -1023 0 
-992 -1053 0 
992 -1022 1023 0 
992 -1052 1053 0 
-993 -1024 0 
-993 -1054 0 
993 -1023 1024 0 
993 -1053 1054 0 
-994 -1025 0 
-994 -1055 0 
994 -1024 1025 0 
994 -1054 1055 0 
-995 -1026 0 
-995 -1056 0 
995 -1025 1026 0 
995 -1055 1056 0 
-996 -1027 0 
-996 -1057 0 
996 -1026 1027 0 
996 -1056 1057 0 
-997 -1028 0 
-997 -1058 0 
997 -1027 1028 0 
997 -1057 1058 0 
-998 -1029 0 
-998 -1059 0 
998 -1028 1029 0 
998 -1058 1059 0 
-999 -1030 0 
-999 -1060 0 
999 -1029 1030 0 
999 -1059 1060 0 
-1000 -1031 0 
-1000 -1061 0 
1000 -1030 1031 0 
1000 -1060 1061 0 
-1001 -1032 0 
-1001 -1062 0 
1001 -1031 1032 0 
1001 -1061 1062 0 
-1002 -1033 0 
-1002 -1063 0 
1002 -1032 1033 0 
1002 -1062 1063 0 
-1003 -1034 0 
-1003 -1064 0 
1003 -1033 1034 0 
1003 -1063 1064 0 
-1004 -1035 0 
-1004 -1065 0 
1004 -1034 1035 0 
1004 -1064 1065 0 
-1005 -1036 0 
-1005 -1066 0 
1005 -1035 1036 0 
1005 -1065 1066 0 
-1006 -1037 0 
-1006 -1067 0 
1006 -1036 1037 0 
1006 -1066 1067 0 
-1007 -1038 0 
-1007 -1068 0 
1007 -1037 1038 0 
1007 -1067 1068 0 
-1008 -1039 0 
-1008 -1069 0 
1008 -1038 1039 0 
1008 -1068 1069 0 
-1009 -1040 0 
-1009 -1070 0 
1009 -1039 1040 0 
1009 -1069 1070 0 
-1010 -1041 0 
-1010 -1070 1071 0 
1010 -1071 0 
1010 -1040 1041 0 
-1011 -1042 0 
-1011 -1072 0 
1011 -1041 1042 0 
1011 -1071 1072 0 
-1012 -1043 0 
-1012 -1072 1073 0 
1012 -1073 0 
1012 -1042 1043 0 
-1013 -1044 0 
-1013 -1073 1074 0 
1013 -1074 0 
1013 -1043 1044 0 
-1014 -1045 0 
-1014 -1074 1075 0 
1014 -1075 0 
1014 -1044 1045 0 
-1015 -1046 0 
-1015 -1076 0 
1015 -1045 1046 0 
1015 -1075 1076 0 
1016 -1046 0 
1016 -1076 0 
1017 -1018 0 
1018 -1019 0 
1019 -1020 0 
1020 -1021 0 
1021 -1022 0 
1022 -1023 0 
1023 -1024 0 
1024 -1025 0 
1025 -1026 0 
1026 -1027 0 
1027 -1028 0 
1028 -1029 0 
1029 -1030 0 
1030 -1031 0 
1031 -1032 0 
1032 -1033 0 
1033 -1034 0 
1034 -1035 0 
1035 -1036 0 
1036 -1037 0 
1037 -1038 0 
1038 -1039 0 
1039 -1040 0 
1040 -1041 0 
1041 -1042 0 
1042 -1043 0 
1043 -1044 0 
1044 -1045 0 
1045 -1046 0 
1047 -1048 0 
1048 -1049 0 
1049 -1050 0 
1050 -1051 0 
1051 -1052 0 
1052 -1053 0 
1053 -1054 0 
1054 -1055 0 
1055 -1056 0 
1056 -1057 0 
1057 -1058 0 
1058 -1059 0 
1059 -1060 0 
1060 -1061 0 
1061 -1062 0 
1062 -1063 0 
1063 -1064 0 
1064 -1065 0 
1065 -1066 0 
1066 -1067 0 
1067 -1068 0 
1068 -1069 0 
1069 -1070 0 
1070 -1071 0 
1071 -1072 0 
1072 -1073 0 
1073 -1074 0 
1074 -1075 0 
1075 -1076 0 
-1077 -1109 0 
-1077 -1139 0 
1077 1078 1109 0 
1077 1078 1139 0 
-1078 -1109 0 
-1078 -1139 0 
-1079 -1110 0 
-1079 -1140 0 
1079 -1109 1110 0 
1079 -1139 1140 0 
-1080 -1111 0 
-1080 -1141 0 
1080 -1110 1111 0 
1080 -1140 1141 0 
-1081 -1112 0 
-1081 -1142 0 
1081 -1111 1112 0 
1081 -1141 1142 0 
-1082 -1113 0 
-1082 -1143 0 
1082 -1112 1113 0 
1082 -1142 1143 0 
-1083 -1114 0 
-1083 -1144 0 
1083 -1113 1114 0 
1083 -1143 1144 0 
-1084 -1115 0 
-1084 -1145 0 
1084 -1114 1115 0 
1084 -1144 1145 0 
-1085 -1116 0 
-1085 -1146 0 
1085 -1115 1116 0 
1085 -1145 1146 0 
-1086 -1117 0 
-1086 -1147 0 
1086 -1116 1117 0 
1086 -1146 1147 0 
-1087 -1118 0 
-1087 -1148 0 
1087 -1117 1118 0 
1087 -1147 1148 0 
-1088 -1119 0 
-1088 -1149 0 
1088 -1118 1119 0 
1088 -1148 1149 0 
-1089 -1120 0 
-1089 -1150 0 
1089 -1119 1120 0 
1089 -1149 1150 0 
-1090 -1121 0 
-1090 -1151 0 
1090 -1120 1121 0 
1090 -1150 1151 0 
-1091 -1122 0 
-1091 -1152 0 
1091 -1121 1122 0 
1091 -1151 1152 0 
-1092 -1123 0 
-1092 -1153 0 
1092 -1122 1123 0 
1092 -1152 1153 0 
-1093 -1124 0 
-1093 -1154 0 
1093 -1123 1124 0 
1093 -1153 1154 0 
-1094 -1125 0 
-1094 -1155 0 
1094 -1124 1125 0 
1094 -1154 1155 0 
-1095 -1126 0 
-1095 -1156 0 
1095 -1125 1126 0 
1095 -1155 1156 0 
-1096 -1127 0 
-1096 -1157 0 
1096 -1126 1127 0 
1096 -1156 1157 0 
-1097 -1128 0 
-1097 -1158 0 
1097 -1127 1128 0 
1097 -1157 1158 0 
-1098 -1129 0 
-1098 -1159 0 
1098 -1128 1129 0 
1098 -1158 1159 0 
-1099 -1130 0 
-1099 -1160 0 
1099 -1129 1130 0 
1099 -1159 1160 0 
-1100 -1131 0 
-1100 -1161 0 
1100 -1130 1131 0 
1100 -1160 1161 0 
-1101 -1132 0 
-1101 -1162 0 
1101 -1131 1132 0 
1101 -1161 1162 0 
-1102 -1133 0 
-1102 -1162 1163 0 
1102 -1163 0 
1102 -1132 1133 0 
-1103 -1134 0 
-1103 -1164 0 
1103 -1133 1134 0 
1103 -1163 1164 0 
-1104 -1135 0 
-1104 -1164 1165 0 
1104 -1165 0 
1104 -1134 1135 0 
-1105 -1136 0 
-1105 -1165 1166 0 
1105 -1166 0 
1105 -1135 1136 0 
-1106 -1137 0 
-1106 -1166 1167 0 
1106 -1167 0 
1106 -1136 1137 0 
-1107 -1138 0 
-1107 -1168 0 
1107 -1137 1138 0 
1107 -1167 1168 0 
1108 -1138 0 
1108 -1168 0 
1109 -1110 0 
1110 -1111 0 
1111 -1112 0 
1112 -1113 0 
1113 -1114 0 
1114 -1115 0 
1115 -1116 0 
1116 -1117 0 
1117 -1118 0 
1118 -1119 0 
1119 -1120 0 
1120 -1121 0 
1121 -1122 0 
1122 -1123 0 
1123 -1124 0 
1124 -1125 0 
1125 -1126 0 
1126 -1127 0 
1127 -1128 0 
1128 -1129 0 
1129 -1130 0 
1130 -1131 0 
1131 -1132 0 
1132 -1133 0 
1133 -1134 0 
1134 -1135 0 
1135 -1136 0 
1136 -1137 0 
1137 -1138 0 
1139 -1140 0 
1140 -1141 0 
1141 -1142 0 
1142 -1143 0 
1143 -1144 0 
1144 -1145 0 
1145 -1146 0 
1146 -1147 0 
1147 -1148 0 
1148 -1149 0 
1149 -1150 0 
1150 -1151 0 
1151 -1152 0 
1152 -1153 0 
1153 -1154 0 
1154 -1155 0 
1155 -1156 0 
1156 -1157 0 
1157 -1158 0 
1158 -1159 0 
1159 -1160 0 
1160 -1161 0 
1161 -1162 0 
1162 -1163 0 
1163 -1164 0 
1164 -1165 0 
1165 -1166 0 
1166 -1167 0 
1167 -1168 0 
